313 1764
79 
7 12 16 21 24 27 31 32 44 45 52 56 87 109 111 122 124 135 147 148 153 154 159 165 173 180 186 189 190 193 195 196 199 201 212 214 221 227 237 238 241 248 254 265 283 294 302 
8 33 48 121 218 258 282 288 
11 18 22 71 90 101 108 117 162 179 191 209 213 217 240 269 272 
9 25 131 166 230 290 310 
13 47 76 155 
2 12 16 24 27 31 32 44 45 52 56 87 109 111 122 124 135 147 148 153 154 159 165 173 180 186 190 193 195 196 199 201 212 214 221 237 238 241 248 254 265 283 294 302 
3 19 20 33 48 73 102 121 218 258 266 282 288 289 
5 25 131 166 230 290 310 
88 211 215 
4 18 22 71 90 101 108 117 162 179 191 209 213 217 240 269 272 
2 7 16 21 24 27 31 32 44 45 52 56 87 109 111 122 124 135 147 148 153 154 159 165 173 180 186 189 190 193 195 196 199 201 206 212 214 221 225 227 237 238 241 248 254 265 283 294 302 
6 47 76 155 

93 126 160 280 291 
2 7 12 21 24 27 31 32 44 45 52 56 87 109 111 122 124 135 147 148 153 154 159 165 173 180 186 189 190 193 195 196 199 201 206 212 214 221 225 227 237 238 241 248 254 265 283 294 302 

4 11 22 71 90 101 108 117 162 179 191 209 213 217 240 269 272 
8 33 48 73 102 218 258 266 282 289 
8 33 218 266 282 
2 12 16 24 27 31 32 44 45 52 56 87 111 122 124 135 147 148 153 154 159 165 173 180 186 189 190 193 196 199 212 214 221 237 238 241 248 254 265 283 294 302 
4 11 18 71 90 101 108 117 162 179 191 209 213 217 240 269 272 

2 7 12 16 21 27 31 32 44 45 52 56 87 109 111 122 124 135 147 148 153 154 159 165 173 180 186 189 190 193 195 196 199 201 206 212 214 221 225 227 237 238 241 248 254 265 283 294 302 
5 9 131 166 230 290 310 
43 
2 7 12 16 21 24 31 32 44 45 52 56 87 109 111 122 124 135 147 148 153 154 159 165 173 180 186 189 190 193 195 196 199 201 212 214 221 225 227 237 238 241 248 254 265 283 294 302 

208 270 303 

2 7 12 16 21 24 27 32 44 45 52 56 87 109 111 122 124 135 147 148 153 154 159 165 173 180 186 189 190 193 195 196 199 201 206 212 214 221 225 227 237 238 241 248 254 265 283 294 302 
2 7 12 16 21 24 27 31 44 45 52 56 87 109 111 122 124 135 147 148 153 154 159 165 173 180 186 189 190 193 195 196 199 201 206 212 214 221 225 227 237 238 241 248 254 265 283 294 302 
3 8 19 20 48 73 102 121 218 258 266 282 288 289 

161 222 308 
58 96 103 164 174 177 197 247 252 

53 77 200 207 242 301 
139 261 268 276 296 
41 169 
40 169 
120 137 
26 
2 7 12 16 21 24 27 31 32 45 52 56 87 109 111 122 124 135 147 148 153 154 159 165 173 180 186 189 190 193 195 196 199 201 206 212 214 221 225 227 237 238 241 248 254 265 283 294 302 
2 7 12 16 21 24 27 31 32 44 52 56 87 109 111 122 124 135 147 148 153 154 159 165 173 180 186 189 190 193 195 196 199 201 206 212 214 221 225 227 237 238 241 248 254 265 283 294 302 

6 13 155 
3 8 19 33 73 102 121 218 258 266 282 288 289 
65 118 134 
66 295 297 

2 7 12 16 21 24 27 31 32 44 45 56 87 109 111 122 124 135 147 148 153 154 159 165 173 180 186 189 190 193 195 196 199 201 206 212 214 221 225 227 237 238 241 248 254 265 283 294 302 
38 77 200 207 242 301 

94 
2 7 12 16 21 24 27 31 32 44 45 52 87 109 111 122 124 135 147 148 153 154 159 165 173 180 186 189 190 193 195 196 199 201 212 214 221 225 227 237 238 241 248 254 265 283 294 302 
70 81 92 149 170 255 259 281 
36 164 174 177 197 247 252 


72 100 127 140 181 187 277 
110 120 129 137 145 151 157 192 
301 

49 118 134 
50 295 297 


107 114 171 219 260 
57 81 92 149 170 255 259 281 
4 11 18 22 90 101 108 117 162 179 191 209 213 217 240 269 272 
61 100 127 140 181 187 
8 19 33 48 102 218 258 266 282 289 

119 235 253 
6 13 155 
38 53 200 207 242 301 

1 
156 
57 70 92 149 170 255 259 281 


216 
138 144 168 226 264 
116 198 
2 7 12 16 21 24 27 31 32 44 45 52 56 109 111 122 124 135 147 148 153 154 159 165 173 180 186 189 190 193 195 196 199 201 206 212 214 221 227 237 238 241 248 254 265 283 294 302 
10 211 215 280 
98 119 287 
4 11 18 22 71 101 108 117 162 179 191 209 213 217 240 269 272 

57 70 81 149 170 255 259 281 
15 126 160 280 291 
55 

36 103 123 164 197 247 252 
183 278 
89 119 287 

61 72 127 140 181 187 277 
4 11 18 22 71 90 108 117 162 179 191 209 213 217 240 269 272 
8 19 33 48 73 218 258 266 282 288 289 
36 96 123 164 197 247 252 

267 
130 150 167 185 245 
69 114 171 219 260 
4 11 18 22 71 90 101 117 162 179 191 209 213 217 240 269 272 
2 7 12 16 24 27 31 32 44 45 52 56 87 111 122 124 135 147 148 153 154 159 165 173 180 186 189 190 193 195 196 199 201 212 214 221 225 227 237 238 241 248 254 265 283 294 302 
62 120 129 137 145 151 157 192 
2 7 12 16 21 24 27 31 32 44 45 52 56 87 109 122 124 135 147 148 153 154 159 165 173 180 186 189 190 193 195 196 199 201 212 214 221 225 227 237 238 241 248 254 265 283 294 302 


69 107 171 219 260 
246 312 
86 198 
4 11 18 22 71 90 101 108 162 179 191 209 213 217 240 269 272 
49 65 134 
75 89 98 235 253 286 287 
42 62 110 129 137 145 151 192 
3 8 33 48 218 258 282 288 
2 7 12 16 21 24 27 31 32 44 45 52 56 87 109 111 124 135 147 148 153 154 159 165 173 180 186 189 190 193 195 196 199 201 206 212 214 221 225 227 237 238 241 248 254 265 283 294 302 
96 103 164 197 247 252 
2 7 12 16 21 24 27 31 32 44 45 52 56 87 109 111 122 135 147 148 153 154 159 165 173 180 186 189 190 193 195 196 199 201 206 212 214 221 227 237 238 241 248 254 265 283 294 302 
274 
15 93 160 280 291 
61 72 100 140 181 187 277 

62 110 120 137 145 151 157 192 
106 167 185 245 
5 9 25 166 230 290 310 

273 
49 65 118 
2 7 12 16 21 24 27 31 32 44 45 52 56 87 109 111 122 124 147 148 153 154 159 165 173 180 186 189 190 193 195 196 199 201 206 212 214 221 227 237 238 241 248 254 265 283 294 302 

42 62 110 120 129 145 151 157 192 
85 144 168 226 264 
39 203 261 268 276 296 
61 72 100 127 181 187 277 
168 226 
244 

85 138 168 226 264 
62 110 120 129 137 151 

2 7 12 16 21 24 27 31 32 44 45 52 56 87 109 111 122 124 135 148 153 154 159 165 173 180 186 189 190 193 195 196 199 201 212 214 221 225 227 237 238 241 248 254 265 283 294 302 
2 7 12 16 21 24 27 31 32 44 45 52 56 87 109 111 122 124 135 147 153 154 159 165 173 180 186 189 190 193 195 196 199 201 206 212 214 221 225 227 237 238 241 248 254 265 283 294 302 
57 70 81 92 170 255 259 281 
106 292 
62 110 120 129 137 145 157 192 

2 7 12 16 21 24 27 31 32 44 45 52 56 87 109 111 122 124 135 147 148 154 159 165 173 180 186 189 190 193 195 196 199 201 206 212 214 221 227 237 238 241 248 254 265 283 294 302 
2 7 12 16 21 24 27 31 32 44 45 52 56 87 109 111 122 124 135 147 148 153 159 165 173 180 186 189 190 193 195 196 199 201 212 214 221 227 237 238 241 248 254 265 283 294 302 
6 13 47 76 226 
80 
62 110 129 137 151 

2 7 12 16 21 24 27 31 32 44 45 52 56 87 109 111 122 124 135 147 148 153 154 165 173 180 186 189 190 193 195 196 199 201 212 214 221 225 227 237 238 241 248 254 265 283 294 302 
15 93 126 280 291 
35 222 308 
4 11 18 22 71 90 101 108 117 179 191 209 213 217 240 269 272 

36 58 96 103 123 174 177 197 247 252 
2 7 12 16 21 24 27 31 32 44 45 52 56 87 109 111 122 124 135 147 148 153 154 159 173 180 186 189 190 193 195 196 199 201 206 212 214 221 227 237 238 241 248 254 265 283 294 302 
5 9 25 131 230 290 310 
106 130 185 245 
85 138 141 144 226 
40 41 
57 70 81 92 149 255 259 281 
69 107 114 219 260 

2 7 12 16 21 24 27 31 32 44 45 52 56 87 109 111 122 124 135 147 148 153 154 159 165 180 186 189 190 193 195 196 199 201 206 212 214 221 227 237 238 241 248 254 265 283 294 302 
36 58 164 177 197 247 252 


36 58 164 174 197 247 252 

4 11 18 22 71 90 101 108 117 162 191 209 213 217 240 269 272 
2 7 12 16 21 24 27 31 32 44 45 52 56 87 109 111 122 124 135 147 148 153 154 159 165 173 186 189 190 193 195 196 199 201 206 212 214 221 225 227 237 238 241 248 254 265 283 294 302 
61 72 100 127 140 187 277 

97 278 

106 130 167 245 
2 7 12 16 21 24 27 31 32 44 45 52 56 87 109 111 122 124 135 147 148 153 154 159 165 173 180 189 190 193 195 196 199 201 206 212 214 221 227 237 238 241 248 254 265 283 294 302 
61 72 100 127 140 181 277 

2 12 16 21 24 27 31 32 44 45 52 56 87 109 111 122 124 135 147 148 153 154 159 165 173 180 186 190 193 195 196 199 201 212 214 221 227 237 238 241 248 254 265 283 294 302 
2 7 12 16 21 24 27 31 32 44 45 52 56 87 109 111 122 124 135 147 148 153 154 159 165 173 180 186 189 193 195 196 199 201 212 214 221 225 227 237 238 241 248 254 265 283 294 302 
4 11 18 22 71 90 101 108 117 162 179 209 213 217 240 269 272 
62 110 120 129 137 151 
2 7 12 16 21 24 27 31 32 44 45 52 56 87 109 111 122 124 135 147 148 153 154 159 165 173 180 186 189 190 195 196 199 201 212 214 221 227 237 238 241 248 254 265 283 294 302 

2 7 12 16 24 27 31 32 44 45 52 56 87 109 111 122 124 135 147 148 153 154 159 165 173 180 186 189 190 193 196 199 201 206 212 214 221 225 227 237 238 241 248 254 265 283 294 302 
2 7 12 16 21 24 27 31 32 44 45 52 56 87 109 111 122 124 135 147 148 153 154 159 165 173 180 186 189 190 193 195 199 201 212 214 221 227 237 238 241 248 254 265 283 294 302 
36 58 96 103 123 164 174 177 247 252 
86 116 
2 7 12 16 21 24 27 31 32 44 45 52 56 87 109 111 122 124 135 147 148 153 154 159 165 173 180 186 189 190 193 195 196 201 206 212 214 221 227 237 238 241 248 254 265 283 294 302 
38 53 77 207 242 301 
2 7 12 16 24 27 31 32 44 45 52 56 87 109 111 122 124 135 147 148 153 154 159 165 173 180 186 189 190 193 195 196 199 212 214 221 227 237 238 241 248 254 265 283 294 302 

139 261 268 276 296 


12 16 24 31 32 44 45 52 87 122 124 135 148 153 165 173 180 186 195 199 212 214 221 237 238 241 254 283 294 
38 53 77 200 242 301 
29 270 303 
4 11 18 22 71 90 101 108 117 162 179 191 213 217 240 269 272 

10 88 215 
2 7 12 16 21 24 27 31 32 44 45 52 56 87 109 111 122 124 135 147 148 153 154 159 165 173 180 186 189 190 193 195 196 199 201 206 214 221 227 237 238 241 248 254 265 283 294 302 
4 11 18 22 71 90 101 108 117 162 179 191 209 217 240 269 272 
2 7 12 16 21 24 27 31 32 44 45 52 56 87 109 111 122 124 135 147 148 153 154 159 165 173 180 186 189 190 193 195 196 199 201 206 212 221 227 237 238 241 248 254 265 283 294 302 
10 88 211 
84 228 
4 11 18 22 71 90 101 108 117 162 179 191 209 213 240 269 272 
3 8 19 20 33 48 73 102 121 258 266 282 288 289 
69 107 114 171 260 

2 7 12 16 21 24 27 31 32 44 45 52 56 87 109 111 122 124 135 147 148 153 154 159 165 173 180 186 189 190 193 195 196 199 201 206 212 214 225 227 237 238 241 248 254 265 283 294 302 
35 161 308 

304 
12 16 24 27 31 32 44 45 52 56 109 111 122 147 148 159 180 190 195 221 238 241 254 283 294 
85 138 141 144 155 168 264 
2 12 16 24 27 31 32 44 45 52 56 87 109 111 122 124 135 147 148 153 154 159 165 173 180 186 189 190 193 195 196 199 201 212 214 221 237 238 241 248 254 265 283 294 302 
216 

5 9 25 131 166 290 310 

285 


75 119 253 

2 7 12 16 21 24 27 31 32 44 45 52 56 87 109 111 122 124 135 147 148 153 154 159 165 173 180 186 189 190 193 195 196 199 201 206 212 214 221 227 238 241 248 254 265 283 294 302 
2 7 12 16 21 24 27 31 32 44 45 52 56 87 109 111 122 124 135 147 148 153 154 159 165 173 180 186 189 190 193 195 196 199 201 206 212 214 221 225 227 237 241 248 254 265 283 294 302 

4 11 18 22 71 90 101 108 117 162 179 191 209 213 217 269 272 
2 7 12 16 21 24 27 31 32 44 45 52 56 87 109 111 122 124 135 147 148 153 154 159 165 173 180 186 189 190 193 195 196 199 201 206 212 214 221 225 227 237 238 248 254 265 283 294 302 
38 53 77 200 207 301 

142 
106 130 167 185 
115 312 
36 58 96 103 123 164 174 177 197 252 
2 7 12 16 21 24 27 31 32 44 45 52 56 87 109 111 122 124 135 147 148 153 154 159 165 173 180 186 189 190 193 195 196 199 201 212 214 221 227 237 238 241 254 265 283 294 302 

275 

36 58 96 103 123 164 174 177 197 247 
75 119 235 
2 7 12 16 21 24 27 31 32 44 45 52 56 87 109 111 122 124 135 147 148 153 154 159 165 173 180 186 189 190 193 195 196 199 201 206 212 214 221 225 227 237 238 241 248 265 283 294 302 
57 70 81 92 149 170 259 281 


3 8 19 33 48 73 102 121 218 266 282 288 289 
57 70 81 92 149 170 255 281 
69 107 114 171 219 
39 139 203 268 276 296 
263 
262 
85 138 144 226 
2 7 12 16 21 24 27 31 32 44 45 52 56 87 109 111 122 124 135 147 148 153 154 159 165 173 180 186 189 190 193 195 196 199 201 212 214 221 227 237 238 241 248 254 283 294 302 
8 19 20 33 48 73 102 218 258 282 288 289 
105 
39 139 203 261 276 296 
4 11 18 22 71 90 101 108 117 162 179 191 209 213 217 240 272 
29 208 303 

4 11 18 22 71 90 101 108 117 162 179 191 209 213 217 240 269 
133 
125 
250 
39 139 203 261 268 296 
61 100 127 140 181 187 
97 183 

15 88 93 126 160 291 
57 70 81 92 149 170 255 259 
3 8 19 20 33 48 73 102 121 218 258 266 288 289 
2 7 12 16 21 24 27 31 32 44 45 52 56 87 109 111 122 124 135 147 148 153 154 159 165 173 180 186 189 190 193 195 196 199 201 206 212 214 221 225 227 237 238 241 248 254 265 294 302 

232 
119 287 
89 98 119 286 
3 8 33 48 102 121 218 258 266 282 289 
8 19 33 48 73 102 218 258 266 282 288 
5 9 25 131 166 230 299 310 
15 93 126 160 280 
150 

2 7 12 16 21 24 27 31 32 44 45 52 56 87 109 111 122 124 135 147 148 153 154 159 165 173 180 186 189 190 193 195 196 199 201 206 212 214 221 225 227 237 238 241 248 254 265 283 302 
50 66 297 
39 139 203 261 268 276 
50 66 295 

290 

38 53 63 77 200 207 242 
2 7 12 16 21 24 27 31 32 44 45 52 56 87 109 111 122 124 135 147 148 153 154 159 165 173 180 186 189 190 193 195 196 199 201 212 214 221 227 237 238 241 248 254 265 283 294 
29 208 270 
224 



35 161 222 

5 9 25 131 166 230 290 

115 246 

